NAME: ../File/prFile/tspFile/tsp_file37.tsp
COMMENT: TSP file generated by Python
TYPE: TSP
DIMENSION: 30
EDGE_WEIGHT_TYPE: EUC_2D
NODE_COORD_SECTION
1 55 17
2 13 3
3 45 9
4 8 2
5 27 95
6 33 37
7 82 22
8 10 26
9 51 55
10 46 9
11 59 30
12 19 34
13 86 6
14 64 45
15 87 19
16 29 90
17 18 27
18 58 72
19 79 9
20 60 42
21 89 91
22 18 7
23 16 75
24 99 5
25 44 44
26 6 53
27 5 34
28 52 93
29 92 60
30 46 65
EOF
